<instance format="XCSP3" type="COP">
  <variables>
    <array id="p" note="p[i] is the nurse assigned to the ith patient" size="[28]"> 0..10 </array>
    <array id="w" note="w[k] is the workload of the kth nurse" size="[11]"> 11..105 </array>
  </variables>
  <constraints>
    <cardinality>
      <list> p[] </list>
      <values> 0 1 2 3 4 5 6 7 8 9 10 </values>
      <occurs> 1..3 1..3 1..3 1..3 1..3 1..3 1..3 1..3 1..3 1..3 1..3 </occurs>
    </cardinality>
    <group>
      <intension> ne(%0,%1) </intension>
      <args> p[0] p[17] </args>
      <args> p[0] p[18] </args>
      <args> p[0] p[19] </args>
      <args> p[0] p[20] </args>
      <args> p[0] p[21] </args>
      <args> p[0] p[22] </args>
      <args> p[0] p[23] </args>
      <args> p[0] p[24] </args>
      <args> p[0] p[25] </args>
      <args> p[0] p[26] </args>
      <args> p[0] p[27] </args>
      <args> p[1] p[17] </args>
      <args> p[1] p[18] </args>
      <args> p[1] p[19] </args>
      <args> p[1] p[20] </args>
      <args> p[1] p[21] </args>
      <args> p[1] p[22] </args>
      <args> p[1] p[23] </args>
      <args> p[1] p[24] </args>
      <args> p[1] p[25] </args>
      <args> p[1] p[26] </args>
      <args> p[1] p[27] </args>
      <args> p[2] p[17] </args>
      <args> p[2] p[18] </args>
      <args> p[2] p[19] </args>
      <args> p[2] p[20] </args>
      <args> p[2] p[21] </args>
      <args> p[2] p[22] </args>
      <args> p[2] p[23] </args>
      <args> p[2] p[24] </args>
      <args> p[2] p[25] </args>
      <args> p[2] p[26] </args>
      <args> p[2] p[27] </args>
      <args> p[3] p[17] </args>
      <args> p[3] p[18] </args>
      <args> p[3] p[19] </args>
      <args> p[3] p[20] </args>
      <args> p[3] p[21] </args>
      <args> p[3] p[22] </args>
      <args> p[3] p[23] </args>
      <args> p[3] p[24] </args>
      <args> p[3] p[25] </args>
      <args> p[3] p[26] </args>
      <args> p[3] p[27] </args>
      <args> p[4] p[17] </args>
      <args> p[4] p[18] </args>
      <args> p[4] p[19] </args>
      <args> p[4] p[20] </args>
      <args> p[4] p[21] </args>
      <args> p[4] p[22] </args>
      <args> p[4] p[23] </args>
      <args> p[4] p[24] </args>
      <args> p[4] p[25] </args>
      <args> p[4] p[26] </args>
      <args> p[4] p[27] </args>
      <args> p[5] p[17] </args>
      <args> p[5] p[18] </args>
      <args> p[5] p[19] </args>
      <args> p[5] p[20] </args>
      <args> p[5] p[21] </args>
      <args> p[5] p[22] </args>
      <args> p[5] p[23] </args>
      <args> p[5] p[24] </args>
      <args> p[5] p[25] </args>
      <args> p[5] p[26] </args>
      <args> p[5] p[27] </args>
      <args> p[6] p[17] </args>
      <args> p[6] p[18] </args>
      <args> p[6] p[19] </args>
      <args> p[6] p[20] </args>
      <args> p[6] p[21] </args>
      <args> p[6] p[22] </args>
      <args> p[6] p[23] </args>
      <args> p[6] p[24] </args>
      <args> p[6] p[25] </args>
      <args> p[6] p[26] </args>
      <args> p[6] p[27] </args>
      <args> p[7] p[17] </args>
      <args> p[7] p[18] </args>
      <args> p[7] p[19] </args>
      <args> p[7] p[20] </args>
      <args> p[7] p[21] </args>
      <args> p[7] p[22] </args>
      <args> p[7] p[23] </args>
      <args> p[7] p[24] </args>
      <args> p[7] p[25] </args>
      <args> p[7] p[26] </args>
      <args> p[7] p[27] </args>
      <args> p[8] p[17] </args>
      <args> p[8] p[18] </args>
      <args> p[8] p[19] </args>
      <args> p[8] p[20] </args>
      <args> p[8] p[21] </args>
      <args> p[8] p[22] </args>
      <args> p[8] p[23] </args>
      <args> p[8] p[24] </args>
      <args> p[8] p[25] </args>
      <args> p[8] p[26] </args>
      <args> p[8] p[27] </args>
      <args> p[9] p[17] </args>
      <args> p[9] p[18] </args>
      <args> p[9] p[19] </args>
      <args> p[9] p[20] </args>
      <args> p[9] p[21] </args>
      <args> p[9] p[22] </args>
      <args> p[9] p[23] </args>
      <args> p[9] p[24] </args>
      <args> p[9] p[25] </args>
      <args> p[9] p[26] </args>
      <args> p[9] p[27] </args>
      <args> p[10] p[17] </args>
      <args> p[10] p[18] </args>
      <args> p[10] p[19] </args>
      <args> p[10] p[20] </args>
      <args> p[10] p[21] </args>
      <args> p[10] p[22] </args>
      <args> p[10] p[23] </args>
      <args> p[10] p[24] </args>
      <args> p[10] p[25] </args>
      <args> p[10] p[26] </args>
      <args> p[10] p[27] </args>
      <args> p[11] p[17] </args>
      <args> p[11] p[18] </args>
      <args> p[11] p[19] </args>
      <args> p[11] p[20] </args>
      <args> p[11] p[21] </args>
      <args> p[11] p[22] </args>
      <args> p[11] p[23] </args>
      <args> p[11] p[24] </args>
      <args> p[11] p[25] </args>
      <args> p[11] p[26] </args>
      <args> p[11] p[27] </args>
      <args> p[12] p[17] </args>
      <args> p[12] p[18] </args>
      <args> p[12] p[19] </args>
      <args> p[12] p[20] </args>
      <args> p[12] p[21] </args>
      <args> p[12] p[22] </args>
      <args> p[12] p[23] </args>
      <args> p[12] p[24] </args>
      <args> p[12] p[25] </args>
      <args> p[12] p[26] </args>
      <args> p[12] p[27] </args>
      <args> p[13] p[17] </args>
      <args> p[13] p[18] </args>
      <args> p[13] p[19] </args>
      <args> p[13] p[20] </args>
      <args> p[13] p[21] </args>
      <args> p[13] p[22] </args>
      <args> p[13] p[23] </args>
      <args> p[13] p[24] </args>
      <args> p[13] p[25] </args>
      <args> p[13] p[26] </args>
      <args> p[13] p[27] </args>
      <args> p[14] p[17] </args>
      <args> p[14] p[18] </args>
      <args> p[14] p[19] </args>
      <args> p[14] p[20] </args>
      <args> p[14] p[21] </args>
      <args> p[14] p[22] </args>
      <args> p[14] p[23] </args>
      <args> p[14] p[24] </args>
      <args> p[14] p[25] </args>
      <args> p[14] p[26] </args>
      <args> p[14] p[27] </args>
      <args> p[15] p[17] </args>
      <args> p[15] p[18] </args>
      <args> p[15] p[19] </args>
      <args> p[15] p[20] </args>
      <args> p[15] p[21] </args>
      <args> p[15] p[22] </args>
      <args> p[15] p[23] </args>
      <args> p[15] p[24] </args>
      <args> p[15] p[25] </args>
      <args> p[15] p[26] </args>
      <args> p[15] p[27] </args>
      <args> p[16] p[17] </args>
      <args> p[16] p[18] </args>
      <args> p[16] p[19] </args>
      <args> p[16] p[20] </args>
      <args> p[16] p[21] </args>
      <args> p[16] p[22] </args>
      <args> p[16] p[23] </args>
      <args> p[16] p[24] </args>
      <args> p[16] p[25] </args>
      <args> p[16] p[26] </args>
      <args> p[16] p[27] </args>
    </group>
    <group>
      <sum>
        <list> %... </list>
        <coeffs> 59 57 50 44 42 40 39 39 33 33 32 27 26 22 20 17 11 49 47 39 39 38 30 30 28 27 15 14 </coeffs>
        <condition> (eq,%0) </condition>
      </sum>
      <args> w[0] eq(p[0],0) eq(p[1],0) eq(p[2],0) eq(p[3],0) eq(p[4],0) eq(p[5],0) eq(p[6],0) eq(p[7],0) eq(p[8],0) eq(p[9],0) eq(p[10],0) eq(p[11],0) eq(p[12],0) eq(p[13],0) eq(p[14],0) eq(p[15],0) eq(p[16],0) eq(p[17],0) eq(p[18],0) eq(p[19],0) eq(p[20],0) eq(p[21],0) eq(p[22],0) eq(p[23],0) eq(p[24],0) eq(p[25],0) eq(p[26],0) eq(p[27],0) </args>
      <args> w[1] eq(p[0],1) eq(p[1],1) eq(p[2],1) eq(p[3],1) eq(p[4],1) eq(p[5],1) eq(p[6],1) eq(p[7],1) eq(p[8],1) eq(p[9],1) eq(p[10],1) eq(p[11],1) eq(p[12],1) eq(p[13],1) eq(p[14],1) eq(p[15],1) eq(p[16],1) eq(p[17],1) eq(p[18],1) eq(p[19],1) eq(p[20],1) eq(p[21],1) eq(p[22],1) eq(p[23],1) eq(p[24],1) eq(p[25],1) eq(p[26],1) eq(p[27],1) </args>
      <args> w[2] eq(p[0],2) eq(p[1],2) eq(p[2],2) eq(p[3],2) eq(p[4],2) eq(p[5],2) eq(p[6],2) eq(p[7],2) eq(p[8],2) eq(p[9],2) eq(p[10],2) eq(p[11],2) eq(p[12],2) eq(p[13],2) eq(p[14],2) eq(p[15],2) eq(p[16],2) eq(p[17],2) eq(p[18],2) eq(p[19],2) eq(p[20],2) eq(p[21],2) eq(p[22],2) eq(p[23],2) eq(p[24],2) eq(p[25],2) eq(p[26],2) eq(p[27],2) </args>
      <args> w[3] eq(p[0],3) eq(p[1],3) eq(p[2],3) eq(p[3],3) eq(p[4],3) eq(p[5],3) eq(p[6],3) eq(p[7],3) eq(p[8],3) eq(p[9],3) eq(p[10],3) eq(p[11],3) eq(p[12],3) eq(p[13],3) eq(p[14],3) eq(p[15],3) eq(p[16],3) eq(p[17],3) eq(p[18],3) eq(p[19],3) eq(p[20],3) eq(p[21],3) eq(p[22],3) eq(p[23],3) eq(p[24],3) eq(p[25],3) eq(p[26],3) eq(p[27],3) </args>
      <args> w[4] eq(p[0],4) eq(p[1],4) eq(p[2],4) eq(p[3],4) eq(p[4],4) eq(p[5],4) eq(p[6],4) eq(p[7],4) eq(p[8],4) eq(p[9],4) eq(p[10],4) eq(p[11],4) eq(p[12],4) eq(p[13],4) eq(p[14],4) eq(p[15],4) eq(p[16],4) eq(p[17],4) eq(p[18],4) eq(p[19],4) eq(p[20],4) eq(p[21],4) eq(p[22],4) eq(p[23],4) eq(p[24],4) eq(p[25],4) eq(p[26],4) eq(p[27],4) </args>
      <args> w[5] eq(p[0],5) eq(p[1],5) eq(p[2],5) eq(p[3],5) eq(p[4],5) eq(p[5],5) eq(p[6],5) eq(p[7],5) eq(p[8],5) eq(p[9],5) eq(p[10],5) eq(p[11],5) eq(p[12],5) eq(p[13],5) eq(p[14],5) eq(p[15],5) eq(p[16],5) eq(p[17],5) eq(p[18],5) eq(p[19],5) eq(p[20],5) eq(p[21],5) eq(p[22],5) eq(p[23],5) eq(p[24],5) eq(p[25],5) eq(p[26],5) eq(p[27],5) </args>
      <args> w[6] eq(p[0],6) eq(p[1],6) eq(p[2],6) eq(p[3],6) eq(p[4],6) eq(p[5],6) eq(p[6],6) eq(p[7],6) eq(p[8],6) eq(p[9],6) eq(p[10],6) eq(p[11],6) eq(p[12],6) eq(p[13],6) eq(p[14],6) eq(p[15],6) eq(p[16],6) eq(p[17],6) eq(p[18],6) eq(p[19],6) eq(p[20],6) eq(p[21],6) eq(p[22],6) eq(p[23],6) eq(p[24],6) eq(p[25],6) eq(p[26],6) eq(p[27],6) </args>
      <args> w[7] eq(p[0],7) eq(p[1],7) eq(p[2],7) eq(p[3],7) eq(p[4],7) eq(p[5],7) eq(p[6],7) eq(p[7],7) eq(p[8],7) eq(p[9],7) eq(p[10],7) eq(p[11],7) eq(p[12],7) eq(p[13],7) eq(p[14],7) eq(p[15],7) eq(p[16],7) eq(p[17],7) eq(p[18],7) eq(p[19],7) eq(p[20],7) eq(p[21],7) eq(p[22],7) eq(p[23],7) eq(p[24],7) eq(p[25],7) eq(p[26],7) eq(p[27],7) </args>
      <args> w[8] eq(p[0],8) eq(p[1],8) eq(p[2],8) eq(p[3],8) eq(p[4],8) eq(p[5],8) eq(p[6],8) eq(p[7],8) eq(p[8],8) eq(p[9],8) eq(p[10],8) eq(p[11],8) eq(p[12],8) eq(p[13],8) eq(p[14],8) eq(p[15],8) eq(p[16],8) eq(p[17],8) eq(p[18],8) eq(p[19],8) eq(p[20],8) eq(p[21],8) eq(p[22],8) eq(p[23],8) eq(p[24],8) eq(p[25],8) eq(p[26],8) eq(p[27],8) </args>
      <args> w[9] eq(p[0],9) eq(p[1],9) eq(p[2],9) eq(p[3],9) eq(p[4],9) eq(p[5],9) eq(p[6],9) eq(p[7],9) eq(p[8],9) eq(p[9],9) eq(p[10],9) eq(p[11],9) eq(p[12],9) eq(p[13],9) eq(p[14],9) eq(p[15],9) eq(p[16],9) eq(p[17],9) eq(p[18],9) eq(p[19],9) eq(p[20],9) eq(p[21],9) eq(p[22],9) eq(p[23],9) eq(p[24],9) eq(p[25],9) eq(p[26],9) eq(p[27],9) </args>
      <args> w[10] eq(p[0],10) eq(p[1],10) eq(p[2],10) eq(p[3],10) eq(p[4],10) eq(p[5],10) eq(p[6],10) eq(p[7],10) eq(p[8],10) eq(p[9],10) eq(p[10],10) eq(p[11],10) eq(p[12],10) eq(p[13],10) eq(p[14],10) eq(p[15],10) eq(p[16],10) eq(p[17],10) eq(p[18],10) eq(p[19],10) eq(p[20],10) eq(p[21],10) eq(p[22],10) eq(p[23],10) eq(p[24],10) eq(p[25],10) eq(p[26],10) eq(p[27],10) </args>
    </group>
    <instantiation class="symmetry-breaking">
      <list> p[0] p[1] </list>
      <values> 0 1 </values>
    </instantiation>
    <ordered>
      <list> w[] </list>
      <operator> le </operator>
    </ordered>
  </constraints>
  <objectives>
    <minimize type="sum"> mul(w[0],w[0]) mul(w[1],w[1]) mul(w[2],w[2]) mul(w[3],w[3]) mul(w[4],w[4]) mul(w[5],w[5]) mul(w[6],w[6]) mul(w[7],w[7]) mul(w[8],w[8]) mul(w[9],w[9]) mul(w[10],w[10]) </minimize>
  </objectives>
</instance>
